25295 14705 1882
20962 22038 2206
22358 20642 2433
22989 21011 2271
20936 22064 2187
22875 19125 2457
18365 22635 2167
19820 22180 2279
22456 19544 2480
25193 14807 2045
21584 21416 2366
20985 21015 2444
19563 22437 2198
23469 18531 2399
24871 17129 2184
21548 20452 2476
18123 21877 2362
24377 18623 2267
18890 19110 2529
24522 17478 2277
25155 15845 1941
19996 21004 2466
21316 20684 2471
22662 20338 2432
17204 21796 2378
20409 20591 2503
18580 22420 2261
19109 19891 2524
17781 22219 2310
24735 18265 2155
23487 19513 2396
19540 22460 2130
24979 17021 2088
22026 18974 2494
20521 21479 2399
19633 22367 2233
20660 19340 2518
25268 14732 1969
24079 18921 2333
17840 22160 2321
20903 22097 2146
21465 19535 2507
18385 19615 2527
19011 21989 2336
23723 20277 2218
19590 19410 2529
21076 21924 2265
20890 20110 2508
21997 21003 2403
19294 21706 2377
20023 20977 2469
18896 21104 2468
23601 18399 2386
21472 21528 2352
